NAME : portcgen-26-29
COMMENT : portcgen N=26, seed=29
TYPE : TSP
DIMENSION : 26
EDGE_WEIGHT_TYPE : EUC_2D
NODE_COORD_SECTION
1 -252503 -171846
2 -16766 448791
3 421423 -33343
4 224696 -82282
5 -132698 -92099
6 -232387 83545
7 -293087 -368719
8 -39675 -41783
9 59297 -110093
10 -268477 -268174
11 -312707 135481
12 211937 -62980
13 115491 365334
14 131159 90709
15 181767 321640
16 -21705 166658
17 -53137 -149420
18 -111987 -9953
19 -124948 52774
20 71263 136799
21 87900 485483
22 -336452 143351
23 -7922 4253
24 270425 223780
25 270086 -89521
26 107256 -4313
